GLPSOL--GLPK LP/MIP Solver 5.0
Parameter(s) specified in the command line:
 --lp ../modeles/5_404.lp --log 5_404.log
Reading problem data from '../modeles/5_404.lp'...
2041 rows, 4050 columns, 14155 non-zeros
2020 integer variables, all of which are binary
6102 lines were read
GLPK Integer Optimizer 5.0
2041 rows, 4050 columns, 14155 non-zeros
2020 integer variables, all of which are binary
Preprocessing...
1990 constraint coefficient(s) were reduced
2041 rows, 4045 columns, 14150 non-zeros
2020 integer variables, all of which are binary
Scaling...
 A: min|aij| =  9.803e-05  max|aij| =  4.000e+00  ratio =  4.080e+04
GM: min|aij| =  7.036e-02  max|aij| =  1.421e+01  ratio =  2.020e+02
EQ: min|aij| =  4.950e-03  max|aij| =  1.000e+00  ratio =  2.020e+02
2N: min|aij| =  3.906e-03  max|aij| =  1.766e+00  ratio =  4.521e+02
Constructing initial basis...
Size of triangular part is 2041
Solving LP relaxation...
GLPK Simplex Optimizer 5.0
2041 rows, 4045 columns, 14150 non-zeros
      0: obj =   1.000000000e+01 inf =   2.450e+01 (11)
    114: obj =   4.288690367e-01 inf =   0.000e+00 (0)
*   387: obj =  -2.235991731e+00 inf =   6.983e-16 (0)
OPTIMAL LP SOLUTION FOUND
Integer optimization begins...
Long-step dual simplex will be used
+   387: mip =     not found yet >=              -inf        (1; 0)
+  1543: >>>>>  -2.235991731e+00 >=  -2.235991731e+00 < 0.1% (1153; 0)
+  1543: mip =  -2.235991731e+00 >=     tree is empty   0.0% (0; 2305)
INTEGER OPTIMAL SOLUTION FOUND
Time used:   3.3 secs
Memory used: 6.0 Mb (6314075 bytes)
